
<<< setup


<<< generate

CPXPARAM_Simplex_Tolerances_Optimality           0.001
CPXPARAM_Simplex_Tolerances_Feasibility          0.001
CPXPARAM_TimeLimit                               3600
CPXPARAM_Threads                                 8
CPXPARAM_MIP_Tolerances_AbsMIPGap                0.001
CPXPARAM_MIP_Tolerances_MIPGap                   0.001
CPXPARAM_MIP_Tolerances_Integrality              0.001
CPXPARAM_MIP_Display                             4
CPXPARAM_MIP_PolishAfter_Solutions               1
Tried aggregator 2 times.
MIQCP Presolve eliminated 2 rows and 2 columns.
Aggregator did 1 substitutions.
Reduced MIQCP has 70 rows, 198 columns, and 331 nonzeros.
Reduced MIQCP has 0 binaries, 32 generals, 0 SOSs, and 0 indicators.
Reduced MIQCP has 3 quadratic constraints.
Presolve time = 0.02 sec. (0.14 ticks)
MIP emphasis: balance optimality and feasibility.
MIP search method: dynamic search.
Parallel mode: deterministic, using up to 8 threads.
Dual infeasible due to empty column 'x(2)'.
Presolve time = 0.00 sec. (0.03 ticks)
Tried aggregator 1 time.
LP Presolve eliminated 66 rows and 66 columns.
Aggregator did 2 substitutions.
Reduced LP has 2 rows, 130 columns, and 130 nonzeros.
Presolve time = 0.00 sec. (0.06 ticks)
Initializing dual steep norms . . .

Iteration log . . .
Iteration:     1    Scaled infeas =             0.000000
Root relaxation solution time = 0.00 sec. (0.17 ticks)

        Nodes                                         Cuts/
   Node  Left     Objective  IInf  Best Integer    Best Bound    ItCnt     Gap

      0     0   -50892.3272    32                 -50892.3272       18         
      0     2   -36596.0040    32                 -50892.3272       34         
Elapsed time = 0.45 sec. (121.25 ticks, tree = 0.01 MB, solutions = 0)
*     6+    1                         3387.1086   -36596.0040              --- 
Found incumbent of value 3387.108601 after 0.48 sec. (165.16 ticks)
*    10+    5                       -13768.4200   -36596.0040           165.80%
Found incumbent of value -13768.420031 after 0.52 sec. (251.35 ticks)

Starting condition for polishing reached (PolishAfterIntSol).
Starting solution polishing.

*    10+    1                       -56097.7080   -36596.0040           -34.76%
Found incumbent of value -56097.708002 after 3.84 sec. (2032.03 ticks)
     10     1        cutoff         -56097.7080   -36596.0040      478  -34.76%

Root node processing (before b&c):
  Real time             =    0.45 sec. (114.78 ticks)
Parallel b&c, 8 threads:
  Real time             =    3.39 sec. (7543.00 ticks)
  Sync time (average)   =    0.61 sec.
  Wait time (average)   =    0.01 sec.
                          ------------
Total (root+branch&cut) =    3.84 sec. (7657.78 ticks)

<<< solve


OBJECTIVE: -56097.71
X*: [10001 10006 10001 10006 10001 10006 10001 10006 10001 10006 10001 10006 10001
     10006 10001 10006 10001 10006 10001 10006 10001 10006 10001 10006 10001
     10006 10001 10006 10001 10006 10001 10006] Z*: [9990 10003 9997 10004 9997 10003 9996 10003 9996 10007 9996 10007 9996 10003
     9996 10004 9996 10003 9996 10004 9996 10003 9996 10004 9996 10004 9996
     10003 9996 10003 9998 10004]
f*:7066.918202656

<<< post process


<<< done

